#SOLVERNAME# PAJ_Gurobi_msd_sep
#SOLVER# Pajarito.PajaritoSolver(3, 3600.0, 1.0e-5, true, Gurobi.GurobiSolver(nothing, Any[(:OutputFlag, 1), (:Threads, 8), (:IntFeasTol, 1.0e-9), (:FeasibilityTol, 1.0e-8), (:MIPGap, 1.0e-5)]), Pajarito.UnsetSolver(), 0, false, true, Pajarito.UnsetSolver(), false, false, false, false, true, false, false, true, false, true, true, true, true, false, true, 10.0, true, true, false, true, 1.0e-12, 1.0e-8, false, "")
#INSTANCE# estein4_C.cbf.gz
#TIMELIMIT# 3600.0

Problem dimensions:
       variables |      67
     constraints |     108
   nonzeros in A |     128

Cones summary:
Cone             | Count   | Min dim.  | Max dim. 
    Second order |       9 |         3 |         3

Variable types:
      continuous |      58
         integer |       9

Transforming data...               0.00s

Building MIP model...              0.00s
Academic license - for non-commercial use only
Optimize a model with 198 rows, 85 columns and 380 nonzeros
Variable types: 76 continuous, 9 integer (0 binary)
Coefficient statistics:
  Matrix range     [8e-01, 4e+00]
  Objective range  [1e+00, 1e+00]
  Bounds range     [0e+00, 0e+00]
  RHS range        [2e-01, 1e+00]
Presolve removed 99 rows and 32 columns
Presolve time: 0.00s
Presolved: 99 rows, 53 columns, 313 nonzeros
Variable types: 49 continuous, 4 integer (4 binary)

Root relaxation: objective 0.000000e+00, 51 iterations, 0.00 seconds

    Nodes    |    Current Node    |     Objective Bounds      |     Work
 Expl Unexpl |  Obj  Depth IntInf | Incumbent    BestBd   Gap | It/Node Time

     0     0    0.00000    0    4          -    0.00000      -     -    0s
H    0     0                       1.1615545    0.00000   100%     -    0s
     0     0    0.24073    0    4    1.16155    0.24073  79.3%     -    0s
     0     0    0.39438    0    4    1.16155    0.39438  66.0%     -    0s
     0     2    0.39438    0    4    1.16155    0.39438  66.0%     -    0s
*   95     3               4       1.1615545    1.07266  7.65%   9.3    0s
*   99     0               4       1.0726937    1.07268  0.00%   9.0    0s

Cutting planes:
  Gomory: 4
  Lazy constraints: 253

Explored 103 nodes (1016 simplex iterations) in 0.03 seconds
Thread count was 8 (of 16 available processors)

Solution count 3: 1.07269 1.16155 1.16155 

Solve interrupted
Best objective 1.072693676396e+00, best bound 1.072690513411e+00, gap 0.0003%

Starting MIP-solver-driven algorithm

MIP-solver-driven algorithm summary:
 - Status               =        Optimal
 - Best feasible        =  +1.072694e+00
 - Best bound           =  +1.072691e+00
 - Relative opt. gap    =      2.876e-06
 - Total time (s)       =       3.43e-02

Timers (s):
 - Setup                =   4.63e-04
 -- Transform data      =   9.94e-05
 -- Create conic data   =   0.00e+00
 -- Create MIP data     =   3.63e-04
 - Algorithm            =   3.38e-02
 -- Solve relaxation    =   0.00e+00
 -- Get relaxation cuts =   0.00e+00
 -- MIP solver driving  =   3.37e-02
 -- Solve subproblems   =   0.00e+00
 -- Get subproblem cuts =   0.00e+00
 -- Get separation cuts =   2.26e-03

Counters:
 - Lazy callbacks       =    69
 -- Integer repeats     =     0
 -- Conic subproblems   =     0
 -- Feasible solutions  =    13
 --- From subproblems   =     0
 --- In lazy callback   =    13
 - Heuristic callbacks  =     0
 -- Solutions passed    =     0

Solution returned by MIP solver

Rounds of full separation/subproblem cuts, and count of cuts added:
Cone             | Subp.  | Sep.   | Total  | Relax. | Viol. 
    Second order |      0 |    142 |    253 |      0 |    253

0 numerically unstable disaggregated SOC cuts

Distance to feasibility (negative indicates strict feasibility):
Cone             | Variable  | Constraint
          Linear |  0.00e+00 |  1.11e-16
    Second order |  1.36e-07 |        NA

Distance to integrality of integer/binary variables:
         integer |  0.00e+00

#STATUS# Optimal
#OBJVAL# 1.072693598990493
#OBJBOUND# 1.072690513411032
#NODECOUNT# 103
#TIMESOLVER# 0.034307003021240234
#TIMEALL# 0.0346989631652832
#SOLUTION# [0.789565,0.655544,0.6255333069136324,0.5281175121826571,0.3309227379328897,0.192384,0.269255,0.829975,0.3564156930863676,0.39668148781734297,0.0,0.0,0.0,0.829975,0.1640316930863676,0.12742648781734295,0.829975,-0.11206499999999997,-0.502865,0.3790179576583515,0.051966693086367644,-0.37543851218265706,0.829975,-0.307739,-0.06923500000000005,0.15504192715756512,-0.14370730691363237,0.05819148781734289,0.2077109762416868,0.1640316930863676,0.12742648781734292,0.3309227379328897,0.0,0.0,0.0,0.0,0.3790179576583515,0.0,0.15504192715756512,0.2077109762416868,1.0,0.0,1.0,0.0,-0.0,1.0,-0.0,1.0,1.0,0.0,1.0,0.0,1.0,1.0,0.0,1.0,0.0,0.0,0.49905226206711034,0.0,0.829975,0.0,0.0,0.4509570423416485,0.0,0.6749330728424349,0.6222640237583132]
